CMD:
./solvers/bin/cadical --plain --no-reduce -t 1600 ./data/cnfs//6s374b114/6s374b114.17.cnf

c --- [ banner ] -------------------------------------------------------------
c 
c CaDiCaL SAT Solver
c Copyright (c) 2016-2024
c A. Biere, M. Fleury, N. Froleyks, K. Fazekas, F. Pollitt, T. Faller
c JKU Linz, University of Freiburg, TU Wien
c 
c Version 2.1.3 5296d3d2a9bf48c154ab2acb5e44625776d821bf
c g++ (Gentoo 12.3.1_p20230526 p2) 12.3.1 20230526 -Wall -Wextra -O3 -DNDEBUG
c Sat Aug 9 07:26:21 PDT 2025 Linux cedar2.int.cedar.computecanada.ca 5.14.0-362.24.2.el9_3.x86_64 x86_64
c 
c --- [ limit ] --------------------------------------------------------------
c 
c setting time limit to 1600 seconds real time (due to '-t 1600')
c 
c --- [ parsing input ] ------------------------------------------------------
c 
c reading DIMACS file from './data/cnfs//6s374b114/6s374b114.17.cnf'
c opening file to read './data/cnfs//6s374b114/6s374b114.17.cnf'
c found 'p cnf 5942733 17493956' header
c parsed 17493956 clauses in 2.61 seconds process time
c 
c --- [ options ] ------------------------------------------------------------
c 
c   --compact=false                (different from default 'true')
c   --decompose=false              (different from default 'true')
c   --deduplicate=false            (different from default 'true')
c   --elim=false                   (different from default 'true')
c   --probe=false                  (different from default 'true')
c   --reduce=false                 (different from default 'true')
c   --subsume=false                (different from default 'true')
c   --ternary=false                (different from default 'true')
c   --transred=false               (different from default 'true')
c   --vivify=false                 (different from default 'true')
c 
c --- [ solving ] ------------------------------------------------------------
c 
c time measured in process time since initialization
c 
c  seconds    reductions  redundant   irredundant
c          MB     restarts       trail          variables
c            level   conflicts       glue             remaining
c 
c *  2.61 2275  0 0   0    0    0  0% 0 13045474 3040473 51%
c {  2.87 2282  0 0   0    0    0  0% 0 13045474 3040473 51%
c i  3.04 2284 816 0   2   71   38 52% 3 13045474 3040462 51%
c i  3.10 2284 733 0   4   82   48 52% 3 13045474 3040444 51%
c i  3.61 2290 925 0   6  266  210 56% 2 13045474 3040283 51%
c i  3.78 2291 852 0   6  327  264 57% 2 13045474 3034031 51%
c i  3.81 2291 834 0   6  334  268 57% 2 13045474 3034026 51%
c i  3.82 2291 832 0   6  335  268 57% 2 13045474 2959649 50%
c i  3.82 2291 830 0   6  336  268 57% 2 13045474 2953956 50%
c i  3.88 2291 811 0   6  344  275 57% 2 13045474 2953923 50%
c i  3.88 2291 802 0   6  348  278 57% 2 13045474 2953860 50%
c i  3.90 2291 798 0   6  350  279 57% 2 13045474 2953847 50%
c i  3.90 2291 796 0   6  351  279 57% 2 13045474 2903176 49%
c i  4.03 2292 770 0   6  365  292 57% 2 13045474 2903172 49%
c i  4.17 2292 754 0   7  381  307 57% 2 13045474 2865794 48%
c i  4.17 2292 754 0   7  382  307 57% 2 13045474 2865793 48%
c i  4.18 2292 754 0   7  383  307 57% 2 13045474 2865792 48%
c i  4.19 2292 748 0   8  390  312 57% 3 13045474 2865726 48%
c i  4.22 2292 724 0   9  402  322 57% 2 13045474 2865724 48%
c i  4.30 2293 653 0   9  446  361 57% 2 13045474 2865723 48%
c 
c  seconds     reductions  redundant   irredundant
c          MB      restarts       trail          variables
c             level   conflicts       glue             remaining
c 
c i  4.55 2293 583 0  10  521  414 57% 2 13045474 2865661 48%
c i  4.68 2294 543 0  11  566  450 57% 2 13045474 2865651 48%
c i  4.94 2314 569 0  11  603  486 58% 2 13045474 2865614 48%
c i  5.21 2314 833 0  11  677  559 61% 2 13045474 2865505 48%
c i  5.21 2314 836 0  11  678  559 61% 2 13045474 2865396 48%
c i  5.22 2314 843 0  11  685  560 61% 2 13045474 2865287 48%
c i  5.22 2314 846 0  11  686  560 61% 2 13045474 2865178 48%
c i  5.22 2314 849 0  11  687  560 61% 2 13045474 2865069 48%
c i  5.22 2314 852 0  11  690  560 61% 2 13045474 2864960 48%
c i  5.22 2314 855 0  11  691  560 61% 2 13045474 2864851 48%
c i  5.22 2314 858 0  11  692  560 61% 2 13045474 2864742 48%
c i  5.30 2314 922 0  11  727  581 62% 2 13045474 2864523 48%
c i  5.30 2314 923 0  11  728  581 62% 2 13045474 2864414 48%
c i  5.83 2314 922 0  15  790  633 63% 2 13045474 2864413 48%
c i  5.93 2314 901 0  19  808  650 63% 2 13045474 2864327 48%
c i  6.01 2314 890 0  19  821  658 63% 2 13045474 2861221 48%
c i  6.05 2314 888 0  20  823  659 63% 2 13045474 2861136 48%
c i  6.07 2314 885 0  20  825  659 63% 2 13045474 2770237 47%
c i  6.14 2314 878 0  20  836  663 63% 2 13045474 2769929 47%
c i  6.20 2314 875 0  20  839  665 63% 2 13045474 2748474 46%
c 
c  seconds     reductions  redundant   irredundant
c          MB      restarts       trail          variables
c             level   conflicts       glue             remaining
c 
c i  6.25 2314 868 0  20  845  670 63% 2 13045474 2692669 45%
c i  6.32 2314 861 0  20  851  673 63% 2 13045474 2692583 45%
c i  6.44 2314 852 0  20  860  680 63% 2 13045474 2692573 45%
c i  6.62 2314 825 0  23  886  705 63% 2 13045474 2692571 45%
c }  9.24 2316 793 0  41 1003  814 64% 2 13045474 2692571 45%
c [  9.24 2316  0 0  41 1003  814  0% 0 13045474 2692571 45%
c O  9.46 2316 25932 0  41 1004  814 65% 0 13045474 2692571 45%
c i  9.46 2316 25932 0  41 1004  814 65% 0 13045474 2692567 45%
c i  9.46 2316 25932 0  41 1005  814 65% 0 13045474 2692545 45%
c i  9.47 2316 25952 0  41 1006  814 65% 0 13045474 2692544 45%
c i  9.47 2316 25976 0  41 1009  816 65% 1 13045474 2692543 45%
c i  9.54 2316 26042 0  41 1012  818 67% 1 13045474 2692506 45%
c i  9.59 2316 26125 0  41 1017  822 68% 1 13045474 2692481 45%
c i  9.59 2316 26155 0  41 1019  823 68% 1 13045474 2692480 45%
c i  9.60 2316 26193 0  41 1022  825 68% 1 13045474 2692479 45%
c i  9.72 2316 26329 0  41 1030  832 71% 1 13045474 2692478 45%
c ] 10.44 2318 27324 0  41 1093  892 85% 1 13045474 2692319 45%
c 0 10.44 2318 27324 0  41 1093  892 85% 1 13045474 2692319 45%
c 
c --- [ result ] -------------------------------------------------------------
c 
s UNSATISFIABLE
c 
c --- [ run-time profiling ] -------------------------------------------------
c 
c process time taken by individual solving procedures
c (percentage relative to process time for solving)
c 
c         7.84  100.00% search
c         6.37   81.26% unstable
c         2.61   33.27% parse
c         1.21   15.41% stable
c         0.26    3.33% lucky
c         0.00    0.00% simplify
c   =================================
c         7.84   75.03% solve
c 
c last line shows process time for solving
c (percentage relative to total process time)
c 
c --- [ statistics ] ---------------------------------------------------------
c 
c chronological:               684        62.58 %  of conflicts
c conflicts:                  1093       139.50    per second
c decisions:                 68940      8798.74    per second
c fixed:                   3224721        54.26 %  of all variables
c learned:                     966        88.38 %  per conflict
c learned_lits:               5326       100.00 %  learned literals
c minimized:                     0         0.00 %  learned literals
c shrunken:                   1024        19.23 %  learned literals
c minishrunken:                173         3.25 %  learned literals
c otfs:                          5         0.46 %  of conflict
c propagations:           60365954         7.70 M  per second
c rephased:                      1      1093.00    interval
c restarts:                     41        26.66    interval
c stabilizing:                   1         8.23 %  of conflicts
c subsumed:                     17         0.00 %  of all clauses
c strengthened:                  5         0.00 %  of all clauses
c 
c seconds are measured in process time for solving
c 
c --- [ resources ] ----------------------------------------------------------
c 
c total process time since initialization:        10.44    seconds
c total real time since initialization:           10.48    seconds
c maximum resident set size of process:         2317.44    MB
c 
c --- [ shutting down ] ------------------------------------------------------
c 
c exit 20
